NAME : MM42_depots
COMMENT : Instance 42 in MD algorithm. Coordinates of depots and vhcl speeds given.
TYPE : TSP
DIMENSION : 5
EDGE_WEIGHT_TYPE : ATT
NODE_COORD_SECTION
451 19.8222 32.684 1
452 19.8222 32.684 1
453 19.5072 88.0338 1
454 19.5072 88.0338 1
455 19.5072 88.0338 1
EOF
